0 21
21 31
31 19
19 17
17 13
13 7
7 26
26 0
0 0
0 12
12 1
1 16
16 30
30 0
0 0
0 27
27 24
24 0
0 0
0 29
29 18
18 8
8 9
9 22
22 15
15 10
10 25
25 5
5 20
20 0
0 0
0 14
14 28
28 11
11 4
4 23
23 3
3 2
2 6
6 0